# Solution for model micodag
# Objective value = 1.6961298845676914e+01
s_0_1 0
s_1_0 0
s_0_2 0
s_2_0 3.3230412158630784e-01
s_1_4 0
s_4_1 3.8207294405102310e-01
s_2_3 0
s_3_2 2.6690357306307178e-01
s_2_4 0
s_4_2 0
s_2_5 0
s_5_2 4.1763377017844938e-01
s_4_5 0
s_5_4 4.4271827642683803e-01
s_4_12 0
s_12_4 2.2340494086088825e-01
s_4_13 0
s_13_4 5.9584813616241128e-01
s_5_6 0
s_6_5 4.2714640522247471e-01
s_6_7 0
s_7_6 6.9250235933400006e-01
s_6_8 0
s_8_6 1.2305380153420060e+00
s_6_10 0
s_10_6 1.6751111077625680e-01
s_6_11 0
s_11_6 6.8156102800411489e-01
s_6_14 0
s_14_6 0.733543299066767
s_7_8 0
s_8_7 1.5687281668108177e+00
s_7_9 0
s_9_7 0
s_8_9 0
s_9_8 6.6082911171720937e-02
s_9_10 0.886915434122975
s_10_9 0
s_10_11 0
s_11_10 3.6259749446743683e-01
s_14_15 0
s_15_14 4.3949979914283688e-01
s_0_0 7.4628802942198647e-01
s_1_1 2.2734623668832752e+00
s_2_2 1.01019292851179
s_3_3 7.0537267542271920e-01
s_4_4 6.1626342127654787e-01
s_5_5 6.2006103670145851e-01
s_6_6 0.691129178072746
s_7_7 9.6715240778469624e-01
s_8_8 2.1245914407623747e+00
s_9_9 1.3825953768285189e+00
s_10_10 1.0134111460408208e+00
s_11_11 1.0808927554629486e+00
s_12_12 6.5664218507514160e-01
s_13_13 9.0424420572802688e-01
s_14_14 2.0262938522896494e+00
s_15_15 1.0751061039209002e+00
Gamma_0_0 8.6387963827259451e-01
Gamma_0_1 0
Gamma_0_2 0
Gamma_0_3 0
Gamma_0_4 0
Gamma_0_5 0
Gamma_0_6 0
Gamma_0_7 0
Gamma_0_8 0
Gamma_0_9 0
Gamma_0_10 0
Gamma_0_11 0
Gamma_0_12 0
Gamma_0_13 0
Gamma_0_14 0
Gamma_0_15 0
Gamma_1_0 0
Gamma_1_1 1.5078005063281001e+00
Gamma_1_2 0
Gamma_1_3 0
Gamma_1_4 0
Gamma_1_5 0
Gamma_1_6 0
Gamma_1_7 0
Gamma_1_8 0
Gamma_1_9 0
Gamma_1_10 0
Gamma_1_11 0
Gamma_1_12 0
Gamma_1_13 0
Gamma_1_14 0
Gamma_1_15 0
Gamma_2_0 5.7645825658612060e-01
Gamma_2_1 0
Gamma_2_2 1.0050835430509204e+00
Gamma_2_3 0
Gamma_2_4 0
Gamma_2_5 0
Gamma_2_6 0
Gamma_2_7 0
Gamma_2_8 0
Gamma_2_9 0
Gamma_2_10 0
Gamma_2_11 0
Gamma_2_12 0
Gamma_2_13 0
Gamma_2_14 0
Gamma_2_15 0
Gamma_3_0 0
Gamma_3_1 0
Gamma_3_2 5.1662711220286750e-01
Gamma_3_3 8.3986467685140753e-01
Gamma_3_4 0
Gamma_3_5 0
Gamma_3_6 0
Gamma_3_7 0
Gamma_3_8 0
Gamma_3_9 0
Gamma_3_10 0
Gamma_3_11 0
Gamma_3_12 0
Gamma_3_13 0
Gamma_3_14 0
Gamma_3_15 0
Gamma_4_0 0
Gamma_4_1 6.1812049314921214e-01
Gamma_4_2 0
Gamma_4_3 0
Gamma_4_4 7.8502447176922407e-01
Gamma_4_5 0
Gamma_4_6 0
Gamma_4_7 0
Gamma_4_8 0
Gamma_4_9 0
Gamma_4_10 0
Gamma_4_11 0
Gamma_4_12 0
Gamma_4_13 0
Gamma_4_14 0
Gamma_4_15 0
Gamma_5_0 0
Gamma_5_1 0
Gamma_5_2 6.4624590534753212e-01
Gamma_5_3 0
Gamma_5_4 6.6537078116403647e-01
Gamma_5_5 7.8743954479150979e-01
Gamma_5_6 0
Gamma_5_7 0
Gamma_5_8 0
Gamma_5_9 0
Gamma_5_10 0
Gamma_5_11 0
Gamma_5_12 0
Gamma_5_13 0
Gamma_5_14 0
Gamma_5_15 0
Gamma_6_0 0
Gamma_6_1 0
Gamma_6_2 0
Gamma_6_3 0
Gamma_6_4 0
Gamma_6_5 -6.5356438490976243e-01
Gamma_6_6 8.3134179377242146e-01
Gamma_6_7 0
Gamma_6_8 0
Gamma_6_9 0
Gamma_6_10 0
Gamma_6_11 0
Gamma_6_12 0
Gamma_6_13 0
Gamma_6_14 0
Gamma_6_15 0
Gamma_7_0 0
Gamma_7_1 0
Gamma_7_2 0
Gamma_7_3 0
Gamma_7_4 0
Gamma_7_5 0
Gamma_7_6 0.832167266439868
Gamma_7_7 9.8343907171959455e-01
Gamma_7_8 0
Gamma_7_9 0
Gamma_7_10 0
Gamma_7_11 0
Gamma_7_12 0
Gamma_7_13 0
Gamma_7_14 0
Gamma_7_15 0
Gamma_8_0 0
Gamma_8_1 0
Gamma_8_2 0
Gamma_8_3 0
Gamma_8_4 0
Gamma_8_5 0
Gamma_8_6 -1.1092961801710155e+00
Gamma_8_7 1.2524887890958623e+00
Gamma_8_8 1.4575978323125953e+00
Gamma_8_9 0
Gamma_8_10 0
Gamma_8_11 0
Gamma_8_12 0
Gamma_8_13 0
Gamma_8_14 0
Gamma_8_15 0
Gamma_9_0 0
Gamma_9_1 0
Gamma_9_2 0
Gamma_9_3 0
Gamma_9_4 0
Gamma_9_5 0
Gamma_9_6 0
Gamma_9_7 0
Gamma_9_8 2.5706596657613540e-01
Gamma_9_9 1.1758381592840574e+00
Gamma_9_10 -9.4176187761183938e-01
Gamma_9_11 0
Gamma_9_12 0
Gamma_9_13 0
Gamma_9_14 0
Gamma_9_15 0
Gamma_10_0 0
Gamma_10_1 0
Gamma_10_2 0
Gamma_10_3 0
Gamma_10_4 0
Gamma_10_5 0
Gamma_10_6 4.0928121234214870e-01
Gamma_10_7 0
Gamma_10_8 0
Gamma_10_9 0
Gamma_10_10 1.0066832401708208e+00
Gamma_10_11 0
Gamma_10_12 0
Gamma_10_13 0
Gamma_10_14 0
Gamma_10_15 0
Gamma_11_0 0
Gamma_11_1 0
Gamma_11_2 0
Gamma_11_3 0
Gamma_11_4 0
Gamma_11_5 0
Gamma_11_6 -8.2556709479249291e-01
Gamma_11_7 0
Gamma_11_8 0
Gamma_11_9 0
Gamma_11_10 -6.0216068824478886e-01
Gamma_11_11 1.0396599229858534e+00
Gamma_11_12 0
Gamma_11_13 0
Gamma_11_14 0
Gamma_11_15 0
Gamma_12_0 0
Gamma_12_1 0
Gamma_12_2 0
Gamma_12_3 0
Gamma_12_4 -4.7265731863675858e-01
Gamma_12_5 0
Gamma_12_6 0
Gamma_12_7 0
Gamma_12_8 0
Gamma_12_9 0
Gamma_12_10 0
Gamma_12_11 0
Gamma_12_12 8.1033461303040966e-01
Gamma_12_13 0
Gamma_12_14 0
Gamma_12_15 0
Gamma_13_0 0
Gamma_13_1 0
Gamma_13_2 0
Gamma_13_3 0
Gamma_13_4 -7.7191200027102391e-01
Gamma_13_5 0
Gamma_13_6 0
Gamma_13_7 0
Gamma_13_8 0
Gamma_13_9 0
Gamma_13_10 0
Gamma_13_11 0
Gamma_13_12 0
Gamma_13_13 9.5091755990097715e-01
Gamma_13_14 0
Gamma_13_15 0
Gamma_14_0 0
Gamma_14_1 0
Gamma_14_2 0
Gamma_14_3 0
Gamma_14_4 0
Gamma_14_5 0
Gamma_14_6 -0.856471423380119
Gamma_14_7 0
Gamma_14_8 0
Gamma_14_9 0
Gamma_14_10 0
Gamma_14_11 0
Gamma_14_12 0
Gamma_14_13 0
Gamma_14_14 1.4234794878359327e+00
Gamma_14_15 0
Gamma_15_0 0
Gamma_15_1 0
Gamma_15_2 0
Gamma_15_3 0
Gamma_15_4 0
Gamma_15_5 0
Gamma_15_6 0
Gamma_15_7 0
Gamma_15_8 0
Gamma_15_9 0
Gamma_15_10 0
Gamma_15_11 0
Gamma_15_12 0
Gamma_15_13 0
Gamma_15_14 -6.6294781027079253e-01
Gamma_15_15 1.0368732342581239e+00
psi_0 6
psi_1 6
psi_2 5
psi_3 0
psi_4 5
psi_5 4
psi_6 3
psi_7 2
psi_8 1
psi_9 0
psi_10 1
psi_11 0
psi_12 0
psi_13 0
psi_14 1
psi_15 0
g_0_0 0
g_0_1 0
g_0_2 0
g_0_3 0
g_0_4 0
g_0_5 0
g_0_6 0
g_0_7 0
g_0_8 0
g_0_9 0
g_0_10 0
g_0_11 0
g_0_12 0
g_0_13 0
g_0_14 0
g_0_15 0
g_1_0 0
g_1_1 0
g_1_2 0
g_1_3 0
g_1_4 0
g_1_5 0
g_1_6 0
g_1_7 0
g_1_8 0
g_1_9 0
g_1_10 0
g_1_11 0
g_1_12 0
g_1_13 0
g_1_14 0
g_1_15 0
g_2_0 1
g_2_1 0
g_2_2 0
g_2_3 0
g_2_4 0
g_2_5 0
g_2_6 0
g_2_7 0
g_2_8 0
g_2_9 0
g_2_10 0
g_2_11 0
g_2_12 0
g_2_13 0
g_2_14 0
g_2_15 0
g_3_0 0
g_3_1 0
g_3_2 1
g_3_3 0
g_3_4 0
g_3_5 0
g_3_6 0
g_3_7 0
g_3_8 0
g_3_9 0
g_3_10 0
g_3_11 0
g_3_12 0
g_3_13 0
g_3_14 0
g_3_15 0
g_4_0 0
g_4_1 1
g_4_2 0
g_4_3 0
g_4_4 0
g_4_5 0
g_4_6 0
g_4_7 0
g_4_8 0
g_4_9 0
g_4_10 0
g_4_11 0
g_4_12 0
g_4_13 0
g_4_14 0
g_4_15 0
g_5_0 0
g_5_1 0
g_5_2 1
g_5_3 0
g_5_4 1
g_5_5 0
g_5_6 0
g_5_7 0
g_5_8 0
g_5_9 0
g_5_10 0
g_5_11 0
g_5_12 0
g_5_13 0
g_5_14 0
g_5_15 0
g_6_0 0
g_6_1 0
g_6_2 0
g_6_3 0
g_6_4 0
g_6_5 1
g_6_6 0
g_6_7 0
g_6_8 0
g_6_9 0
g_6_10 0
g_6_11 0
g_6_12 0
g_6_13 0
g_6_14 0
g_6_15 0
g_7_0 0
g_7_1 0
g_7_2 0
g_7_3 0
g_7_4 0
g_7_5 0
g_7_6 1
g_7_7 0
g_7_8 0
g_7_9 0
g_7_10 0
g_7_11 0
g_7_12 0
g_7_13 0
g_7_14 0
g_7_15 0
g_8_0 0
g_8_1 0
g_8_2 0
g_8_3 0
g_8_4 0
g_8_5 0
g_8_6 1
g_8_7 1
g_8_8 0
g_8_9 0
g_8_10 0
g_8_11 0
g_8_12 0
g_8_13 0
g_8_14 0
g_8_15 0
g_9_0 0
g_9_1 0
g_9_2 0
g_9_3 0
g_9_4 0
g_9_5 0
g_9_6 0
g_9_7 0
g_9_8 1
g_9_9 0
g_9_10 1
g_9_11 0
g_9_12 0
g_9_13 0
g_9_14 0
g_9_15 0
g_10_0 0
g_10_1 0
g_10_2 0
g_10_3 0
g_10_4 0
g_10_5 0
g_10_6 1
g_10_7 0
g_10_8 0
g_10_9 0
g_10_10 0
g_10_11 0
g_10_12 0
g_10_13 0
g_10_14 0
g_10_15 0
g_11_0 0
g_11_1 0
g_11_2 0
g_11_3 0
g_11_4 0
g_11_5 0
g_11_6 1
g_11_7 0
g_11_8 0
g_11_9 0
g_11_10 1
g_11_11 0
g_11_12 0
g_11_13 0
g_11_14 0
g_11_15 0
g_12_0 0
g_12_1 0
g_12_2 0
g_12_3 0
g_12_4 1
g_12_5 0
g_12_6 0
g_12_7 0
g_12_8 0
g_12_9 0
g_12_10 0
g_12_11 0
g_12_12 0
g_12_13 0
g_12_14 0
g_12_15 0
g_13_0 0
g_13_1 0
g_13_2 0
g_13_3 0
g_13_4 1
g_13_5 0
g_13_6 0
g_13_7 0
g_13_8 0
g_13_9 0
g_13_10 0
g_13_11 0
g_13_12 0
g_13_13 0
g_13_14 0
g_13_15 0
g_14_0 0
g_14_1 0
g_14_2 0
g_14_3 0
g_14_4 0
g_14_5 0
g_14_6 1
g_14_7 0
g_14_8 0
g_14_9 0
g_14_10 0
g_14_11 0
g_14_12 0
g_14_13 0
g_14_14 0
g_14_15 0
g_15_0 0
g_15_1 0
g_15_2 0
g_15_3 0
g_15_4 0
g_15_5 0
g_15_6 0
g_15_7 0
g_15_8 0
g_15_9 0
g_15_10 0
g_15_11 0
g_15_12 0
g_15_13 0
g_15_14 1
g_15_15 0
T_0 0.292643654874297
T_1 -8.2130394120257222e-01
T_2 -1.0141330940001581e-02
T_3 3.4902899821805988e-01
T_4 4.8408077491464496e-01
T_5 4.7793735949584004e-01
T_6 3.6942852902092227e-01
T_7 3.3399187070159542e-02
T_8 -7.5357952072080536e-01
T_9 -3.2396244069913394e-01
T_10 -1.3322012657980054e-02
T_11 -7.7787325098157112e-02
T_12 4.2061602822464295e-01
T_13 1.0065581599127427e-01
T_14 -7.0620843592593019e-01
T_15 -7.2419358030742842e-02
